30 5
4 1 4 4 5 
11 15 4
2 4 5
10 12 3
3 6 2
7 9 1
0 5 3
15 18 4
0 5 1
5 9 4
15 17 1
7 11 4
9 11 5
20 22 2
9 11 3
11 15 4
10 13 2
21 23 4
7 9 5
21 1 3
15 16 5
17 20 1
22 0 2
16 20 1
1 4 4
22 1 1
1 3 4
7 11 4
17 21 2
17 20 4
13 17 2
